RAW/CMTY/fspd/CMT7Y.vrp_seed-6.out
901.10577	30.2	33.624
