RAW/CMTY/fspd/CMT7Y.vrp_seed-6.sol
Route #1: 37 20 70 60 71 36
Route #2: 63 23 56 41 43 33 6
Route #3: 51 16 49 24 3 44 40 17
Route #4: 67 8 46 34 75
Route #5: 52 27 13 54 19 35 53 7
Route #6: 12 72 39 31 10 58 26
Route #7: 30 74 21 69 61 28 2
Route #8: 14 59 11 66 65 38
Route #9: 73 1 42 64 22 62 68
Route #10: 4 45 29 57 15 5 47 48
Route #11: 9 25 55 18 50 32
Cost 901.105770